StudentsNr = 10;
InstructorsNr = 16;
DaysNr = 1;
SlotsPerDay = 60;
AvailabilitySlotsLenght = 20;
RoomNr = 2;
ProgrammNr = 2;
DegreeNr = 2;
RolesNr = 0;
CoursesNr = 7;
InstructorsProgramm = [{1, 2}, {1}, {2}, {2}, {1, 2}, {1, 2}, {1, 2}, {1}, {1, 2}, {2}, {1, 2}, {2}, {1}, {1}, {2}, {2}];
InstructorRolesPerProgramm = array2d(1..ProgrammNr,{},[]);
InstructorsAvailability = [|1, 1, 1, |0, 1, 1, |1, 1, 0, |0, 0, 1, |1, 0, 1, |0, 0, 1, |1, 0, 1, |0, 1, 1, |0, 1, 0, |1, 1, 1, |0, 1, 1, |0, 0, 0, |1, 1, 1, |0, 1, 1, |0, 1, 1, |0, 1, 1|];
StudentsProgramm = [2, 1, 1, 1, 1, 1, 2, 2, 2, 1];
StudentsDegree = [1, 2, 1, 1, 1, 2, 2, 2, 2, 2];
StudentsSupervisorId = [3, 9, 9, 7, 8, 13, 5, 11, 3, 8];
StudentsCourseIds = [{2, 5, 7}, {1, 2, 3, 5, 6, 7}, {1, 4, 5}, {3, 6, 7}, {1, 2, 5}, {1, 3, 4, 5, 6, 7}, {2, 3, 4, 5, 6, 7}, {1, 2, 3, 4, 5, 6}, {1, 3, 4, 5, 6, 7}, {1, 3, 4, 5, 6, 7}];
StudentsAvailability = [|0, 1, 1, |0, 0, 0, |1, 1, 0, |1, 1, 1, |1, 1, 1, |1, 1, 1, |1, 1, 1, |0, 1, 0, |1, 1, 1, |0, 0, 0|];
TheoryticalMinCard = [3, 6, 3, 3, 3, 6, 6, 6, 6, 6];
CoursesInstructorIds = [{4, 5}, {5}, {7, 8, 11, 15}, {1, 4, 7, 8, 14, 15, 16}, {1, 3, 4, 5, 6, 8, 9, 10, 11, 12, 14, 15}, {1, 2, 5, 6, 8, 10, 12, 13, 14, 15, 16}, {1, 4, 6, 7, 9, 11, 14, 15}];
RolesDemands = [];
RolesContinuity = [];
ExamLen = [1, 1, 1, 1, 1, 1, 1, 1, 1, 1];
LunchTsMinLen = 0;
LunchStarts = [30..41];
SupervisorAvailable = 0;
OptimalLunchLenght = [1, 1];
OptimalStartTs = [1, 0];
OptimalFinishTs = [0, 60];
MinimizeRooms = 400;
RolesSoftContinuity = array2d(1..2,{},[]);
SameDegreeInRoom = 10;
Mergeability = 0;
